
Gurobi 11.0.3 (linux64) logging started Thu Nov 21 19:40:38 2024

Set parameter LogFile to value "/home/yihong/Coding/OR_SUC/SUC_results_bigM100000_thread4/case24_ieee_rts_theta0.1_epsilon0.025_gurobi_seed220000_num_gen100_N_WDR100_load_scaling_factor1_exact_T12quadra_cost.txt"
Set parameter TimeLimit to value 3600
Gurobi Optimizer version 11.0.3 build v11.0.3rc0 (linux64 - "Ubuntu 20.04.6 LTS")

CPU model: AMD EPYC 7532 32-Core Processor, instruction set [SSE2|AVX|AVX2]
Thread count: 64 physical cores, 128 logical processors, using up to 4 threads

Optimize a model with 25823 rows, 15081 columns and 355770 nonzeros
Model fingerprint: 0xb5bddc6e
Model has 1200 quadratic constraints
Variable types: 13781 continuous, 1300 integer (1300 binary)
Coefficient statistics:
  Matrix range     [3e-04, 1e+05]
  QMatrix range    [2e-03, 8e-03]
  QLMatrix range   [2e-01, 6e+01]
  Objective range  [1e+00, 1e+00]
  Bounds range     [1e+00, 1e+00]
  RHS range        [1e+00, 1e+05]
Presolve removed 21046 rows and 6670 columns
Presolve time: 0.10s
Presolved: 4777 rows, 8411 columns, 28710 nonzeros
Presolved model has 1200 quadratic constraint(s)
Variable types: 7169 continuous, 1242 integer (1242 binary)

Root relaxation: objective 1.707183e+04, 3733 iterations, 0.06 seconds (0.08 work units)

    Nodes    |    Current Node    |     Objective Bounds      |     Work
 Expl Unexpl |  Obj  Depth IntInf | Incumbent    BestBd   Gap | It/Node Time

     0     0 17071.8256    0    3          - 17071.8256      -     -    0s
     0     0 89549.0428    0  477          - 89549.0428      -     -    0s
     0     0 229535.403    0  327          - 229535.403      -     -    0s
     0     0 229631.893    0  245          - 229631.893      -     -    0s
     0     0 230139.895    0  184          - 230139.895      -     -    0s
     0     0 230140.495    0  184          - 230140.495      -     -    0s
     0     0 230337.820    0  162          - 230337.820      -     -    0s
     0     0 230343.385    0  162          - 230343.385      -     -    0s
     0     0 230367.326    0  156          - 230367.326      -     -    0s
     0     0 230367.593    0  156          - 230367.593      -     -    0s
     0     2 230367.593    0  156          - 230367.593      -     -    1s
H  256   245                    230539.19481 230383.362  0.07%  12.5    1s
*  256   245              79    230539.19481 230383.362  0.07%  12.5    1s

Cutting planes:
  Gomory: 28
  Implied bound: 341
  MIR: 79
  Flow cover: 66
  PSD: 4

Explored 288 nodes (14996 simplex iterations) in 1.82 seconds (2.27 work units)
Thread count was 4 (of 128 available processors)

Solution count 2: 230539 230539 

Optimal solution found (tolerance 1.00e-03)
Warning: max constraint violation (3.3782e-07) exceeds tolerance
Best objective 2.305391948047e+05, best bound 2.303833622344e+05, gap 0.0676%
